sat
(:SPACER-cex-depth                    2
 :SPACER-inductive-gen                1
 :SPACER-inductive-gen-weaken-fail    1
 :SPACER-inductive-gen-weaken-success 1
 :SPACER-max-depth                    2
 :SPACER-max-query-lvl                2
 :SPACER-num-active-lemmas            2
 :SPACER-num-is_invariant             2
 :SPACER-num-lemmas                   3
 :SPACER-num-pobs                     2
 :SPACER-num-queries                  2
 :SPACER-num-reach-queries            2
 :SPACER-num-reuse-reach-facts        1
 :added-eqs                           158
 :arith-assert-diseq                  14
 :arith-assert-lower                  88
 :arith-assert-upper                  92
 :arith-bound-prop                    26
 :arith-conflicts                     2
 :arith-eq-adapter                    38
 :arith-fixed-eqs                     40
 :arith-num-rows                      18
 :arith-offset-eqs                    2
 :arith-pivots                        32
 :arith-row-summations                40
 :arith-tableau-max-columns           54
 :arith-tableau-max-rows              18
 :conflicts                           22
 :decisions                           86
 :del-clause                          30
 :final-checks                        12
 :iuc_solver.num_proxies              5
 :max-memory                          30.22
 :memory                              30.22
 :mk-bool-var                         272
 :mk-clause                           258
 :num-allocs                          4286041
 :num-checks                          26
 :pool_solver.checks                  13
 :pool_solver.checks.sat              6
 :propagations                        304
 :rlimit-count                        4346
 :time                                0.02
 :time.pool_solver.smt.total          0.00
 :time.pool_solver.smt.total.sat      0.00
 :time.spacer.init_rules              0.00
 :time.spacer.solve                   0.01
 :time.spacer.solve.propagate         0.00
 :time.spacer.solve.reach             0.01)
(:max-memory   30.22
 :memory       30.22
 :num-allocs   4286041
 :rlimit-count 4346
 :time         0.02
 :total-time   0.04)
